2000, -294970296
8, 4002001
805, 4002002
30, 4002003
961, 4002004
135, 4002005
692, 4002006
105, 4002007
571, 4002008
737, 4002009
366, 4002010
220, 4002011
781, 4002012
802, 4002013
642, 4002014
732, 4002015
21, 4002016
734, 4002017
630, 4002018
208, 4002019
301, 4002020
766, 4002021
22, 4002022
216, 4002023
121, 4002024
300, 4002025
981, 4002026
30, 4002027
708, 4002028
353, 4002029
34, 4002030
416, 4002031
975, 4002032
685, 4002033
484, 4002034
883, 4002035
722, 4002036
159, 4002037
582, 4002038
369, 4002039
640, 4002040
873, 4002041
259, 4002042
604, 4002043
399, 4002044
61, 4002045
986, 4002046
80, 4002047
653, 4002048
354, 4002049
498, 4002050
692, 4002051
844, 4002052
998, 4002053
623, 4002054
473, 4002055
910, 4002056
317, 4002057
547, 4002058
873, 4002059
505, 4002060
416, 4002061
333, 4002062
8, 4002063
467, 4002064
103, 4002065
765, 4002066
734, 4002067
206, 4002068
415, 4002069
293, 4002070
979, 4002071
429, 4002072
500, 4002073
257, 4002074
393, 4002075
429, 4002076
96, 4002077
871, 4002078
685, 4002079
628, 4002080
353, 4002081
864, 4002082
326, 4002083
685, 4002084
623, 4002085
948, 4002086
700, 4002087
962, 4002088
450, 4002089
577, 4002090
345, 4002091
864, 4002092
648, 4002093
749, 4002094
819, 4002095
726, 4002096
636, 4002097
199, 4002098
888, 4002099
29, 4002100
56, 4002101
953, 4002102
383, 4002103
193, 4002104
123, 4002105
720, 4002106
285, 4002107
725, 4002108
67, 4002109
850, 4002110
277, 4002111
915, 4002112
348, 4002113
38, 4002114
718, 4002115
522, 4002116
135, 4002117
991, 4002118
225, 4002119
613, 4002120
892, 4002121
249, 4002122
936, 4002123
650, 4002124
735, 4002125
362, 4002126
168, 4002127
776, 4002128
966, 4002129
586, 4002130
967, 4002131
895, 4002132
184, 4002133
162, 4002134
566, 4002135
283, 4002136
647, 4002137
16, 4002138
495, 4002139
889, 4002140
239, 4002141
985, 4002142
479, 4002143
320, 4002144
68, 4002145
462, 4002146
725, 4002147
481, 4002148
727, 4002149
183, 4002150
393, 4002151
823, 4002152
441, 4002153
106, 4002154
565, 4002155
471, 4002156
374, 4002157
508, 4002158
31, 4002159
369, 4002160
67, 4002161
638, 4002162
612, 4002163
76, 4002164
480, 4002165
129, 4002166
382, 4002167
813, 4002168
631, 4002169
34, 4002170
367, 4002171
760, 4002172
570, 4002173
486, 4002174
523, 4002175
301, 4002176
448, 4002177
174, 4002178
897, 4002179
468, 4002180
776, 4002181
580, 4002182
170, 4002183
1, 4002184
443, 4002185
436, 4002186
760, 4002187
224, 4002188
486, 4002189
403, 4002190
136, 4002191
897, 4002192
765, 4002193
667, 4002194
512, 4002195
733, 4002196
441, 4002197
900, 4002198
737, 4002199
990, 4002200
979, 4002201
532, 4002202
301, 4002203
66, 4002204
798, 4002205
896, 4002206
449, 4002207
313, 4002208
696, 4002209
16, 4002210
84, 4002211
418, 4002212
296, 4002213
494, 4002214
910, 4002215
497, 4002216
465, 4002217
319, 4002218
522, 4002219
308, 4002220
397, 4002221
200, 4002222
747, 4002223
848, 4002224
307, 4002225
777, 4002226
274, 4002227
568, 4002228
754, 4002229
565, 4002230
686, 4002231
606, 4002232
243, 4002233
888, 4002234
129, 4002235
264, 4002236
777, 4002237
143, 4002238
346, 4002239
148, 4002240
620, 4002241
35, 4002242
237, 4002243
987, 4002244
905, 4002245
317, 4002246
372, 4002247
609, 4002248
763, 4002249
883, 4002250
81, 4002251
106, 4002252
885, 4002253
897, 4002254
417, 4002255
599, 4002256
741, 4002257
193, 4002258
930, 4002259
215, 4002260
251, 4002261
67, 4002262
733, 4002263
661, 4002264
23, 4002265
212, 4002266
276, 4002267
304, 4002268
869, 4002269
907, 4002270
964, 4002271
350, 4002272
756, 4002273
991, 4002274
892, 4002275
927, 4002276
802, 4002277
330, 4002278
124, 4002279
432, 4002280
841, 4002281
176, 4002282
238, 4002283
380, 4002284
125, 4002285
56, 4002286
112, 4002287
340, 4002288
963, 4002289
513, 4002290
280, 4002291
584, 4002292
699, 4002293
230, 4002294
870, 4002295
212, 4002296
95, 4002297
978, 4002298
604, 4002299
540, 4002300
457, 4002301
604, 4002302
545, 4002303
839, 4002304
632, 4002305
348, 4002306
561, 4002307
838, 4002308
795, 4002309
883, 4002310
334, 4002311
150, 4002312
332, 4002313
655, 4002314
242, 4002315
865, 4002316
669, 4002317
940, 4002318
794, 4002319
401, 4002320
918, 4002321
515, 4002322
980, 4002323
613, 4002324
397, 4002325
694, 4002326
585, 4002327
169, 4002328
43, 4002329
905, 4002330
995, 4002331
426, 4002332
325, 4002333
875, 4002334
199, 4002335
39, 4002336
72, 4002337
362, 4002338
924, 4002339
889, 4002340
220, 4002341
442, 4002342
642, 4002343
11, 4002344
82, 4002345
470, 4002346
356, 4002347
138, 4002348
109, 4002349
461, 4002350
901, 4002351
293, 4002352
524, 4002353
638, 4002354
302, 4002355
85, 4002356
374, 4002357
819, 4002358
838, 4002359
438, 4002360
860, 4002361
817, 4002362
240, 4002363
308, 4002364
834, 4002365
926, 4002366
264, 4002367
86, 4002368
117, 4002369
194, 4002370
45, 4002371
278, 4002372
141, 4002373
702, 4002374
536, 4002375
439, 4002376
564, 4002377
431, 4002378
564, 4002379
741, 4002380
990, 4002381
91, 4002382
571, 4002383
968, 4002384
999, 4002385
906, 4002386
102, 4002387
664, 4002388
279, 4002389
94, 4002390
541, 4002391
426, 4002392
696, 4002393
3, 4002394
923, 4002395
833, 4002396
526, 4002397
71, 4002398
563, 4002399
837, 4002400
374, 4002401
58, 4002402
909, 4002403
727, 4002404
335, 4002405
343, 4002406
641, 4002407
242, 4002408
83, 4002409
577, 4002410
609, 4002411
283, 4002412
646, 4002413
278, 4002414
243, 4002415
874, 4002416
957, 4002417
943, 4002418
405, 4002419
134, 4002420
889, 4002421
269, 4002422
655, 4002423
60, 4002424
697, 4002425
597, 4002426
844, 4002427
265, 4002428
186, 4002429
485, 4002430
824, 4002431
435, 4002432
354, 4002433
276, 4002434
586, 4002435
987, 4002436
128, 4002437
325, 4002438
267, 4002439
789, 4002440
414, 4002441
908, 4002442
878, 4002443
685, 4002444
127, 4002445
238, 4002446
997, 4002447
147, 4002448
968, 4002449
421, 4002450
842, 4002451
312, 4002452
274, 4002453
482, 4002454
547, 4002455
774, 4002456
574, 4002457
65, 4002458
483, 4002459
780, 4002460
863, 4002461
455, 4002462
527, 4002463
199, 4002464
947, 4002465
951, 4002466
62, 4002467
690, 4002468
394, 4002469
224, 4002470
232, 4002471
150, 4002472
781, 4002473
432, 4002474
256, 4002475
690, 4002476
727, 4002477
548, 4002478
394, 4002479
195, 4002480
367, 4002481
196, 4002482
116, 4002483
700, 4002484
196, 4002485
323, 4002486
616, 4002487
400, 4002488
207, 4002489
757, 4002490
544, 4002491
602, 4002492
508, 4002493
839, 4002494
793, 4002495
427, 4002496
336, 4002497
82, 4002498
280, 4002499
628, 4002500
324, 4002501
240, 4002502
583, 4002503
399, 4002504
24, 4002505
125, 4002506
896, 4002507
401, 4002508
328, 4002509
110, 4002510
632, 4002511
659, 4002512
746, 4002513
525, 4002514
621, 4002515
340, 4002516
630, 4002517
434, 4002518
720, 4002519
976, 4002520
156, 4002521
627, 4002522
244, 4002523
475, 4002524
417, 4002525
77, 4002526
700, 4002527
454, 4002528
241, 4002529
183, 4002530
920, 4002531
241, 4002532
598, 4002533
118, 4002534
240, 4002535
519, 4002536
103, 4002537
691, 4002538
199, 4002539
268, 4002540
697, 4002541
518, 4002542
569, 4002543
465, 4002544
889, 4002545
542, 4002546
964, 4002547
935, 4002548
448, 4002549
46, 4002550
730, 4002551
119, 4002552
29, 4002553
850, 4002554
677, 4002555
512, 4002556
750, 4002557
63, 4002558
762, 4002559
520, 4002560
15, 4002561
454, 4002562
494, 4002563
17, 4002564
632, 4002565
328, 4002566
899, 4002567
989, 4002568
682, 4002569
515, 4002570
395, 4002571
386, 4002572
114, 4002573
195, 4002574
587, 4002575
727, 4002576
437, 4002577
841, 4002578
873, 4002579
820, 4002580
418, 4002581
807, 4002582
78, 4002583
654, 4002584
818, 4002585
770, 4002586
989, 4002587
360, 4002588
851, 4002589
750, 4002590
657, 4002591
10, 4002592
112, 4002593
629, 4002594
946, 4002595
100, 4002596
218, 4002597
760, 4002598
440, 4002599
467, 4002600
218, 4002601
539, 4002602
414, 4002603
420, 4002604
795, 4002605
693, 4002606
312, 4002607
620, 4002608
996, 4002609
125, 4002610
845, 4002611
973, 4002612
652, 4002613
38, 4002614
789, 4002615
211, 4002616
148, 4002617
347, 4002618
859, 4002619
466, 4002620
480, 4002621
491, 4002622
179, 4002623
250, 4002624
605, 4002625
685, 4002626
109, 4002627
923, 4002628
948, 4002629
485, 4002630
712, 4002631
897, 4002632
365, 4002633
285, 4002634
935, 4002635
616, 4002636
637, 4002637
548, 4002638
895, 4002639
936, 4002640
632, 4002641
74, 4002642
166, 4002643
745, 4002644
486, 4002645
193, 4002646
957, 4002647
280, 4002648
729, 4002649
925, 4002650
199, 4002651
960, 4002652
421, 4002653
460, 4002654
959, 4002655
225, 4002656
479, 4002657
807, 4002658
181, 4002659
285, 4002660
734, 4002661
863, 4002662
169, 4002663
957, 4002664
189, 4002665
312, 4002666
782, 4002667
663, 4002668
518, 4002669
808, 4002670
88, 4002671
363, 4002672
799, 4002673
304, 4002674
501, 4002675
513, 4002676
161, 4002677
889, 4002678
200, 4002679
332, 4002680
787, 4002681
560, 4002682
761, 4002683
905, 4002684
779, 4002685
235, 4002686
421, 4002687
440, 4002688
781, 4002689
209, 4002690
124, 4002691
457, 4002692
353, 4002693
134, 4002694
77, 4002695
408, 4002696
745, 4002697
412, 4002698
43, 4002699
234, 4002700
872, 4002701
361, 4002702
579, 4002703
749, 4002704
11, 4002705
871, 4002706
627, 4002707
419, 4002708
411, 4002709
191, 4002710
252, 4002711
807, 4002712
449, 4002713
501, 4002714
769, 4002715
709, 4002716
520, 4002717
631, 4002718
37, 4002719
214, 4002720
279, 4002721
693, 4002722
552, 4002723
441, 4002724
492, 4002725
162, 4002726
266, 4002727
715, 4002728
873, 4002729
601, 4002730
806, 4002731
792, 4002732
161, 4002733
992, 4002734
536, 4002735
558, 4002736
299, 4002737
407, 4002738
951, 4002739
608, 4002740
734, 4002741
162, 4002742
707, 4002743
249, 4002744
475, 4002745
803, 4002746
943, 4002747
37, 4002748
542, 4002749
160, 4002750
215, 4002751
75, 4002752
437, 4002753
994, 4002754
251, 4002755
652, 4002756
470, 4002757
387, 4002758
626, 4002759
157, 4002760
493, 4002761
23, 4002762
935, 4002763
240, 4002764
275, 4002765
827, 4002766
599, 4002767
663, 4002768
647, 4002769
689, 4002770
721, 4002771
145, 4002772
97, 4002773
626, 4002774
84, 4002775
522, 4002776
937, 4002777
985, 4002778
899, 4002779
503, 4002780
36, 4002781
342, 4002782
268, 4002783
471, 4002784
359, 4002785
344, 4002786
356, 4002787
243, 4002788
409, 4002789
449, 4002790
36, 4002791
333, 4002792
277, 4002793
878, 4002794
95, 4002795
92, 4002796
829, 4002797
276, 4002798
65, 4002799
918, 4002800
335, 4002801
356, 4002802
665, 4002803
661, 4002804
436, 4002805
191, 4002806
927, 4002807
474, 4002808
827, 4002809
657, 4002810
518, 4002811
764, 4002812
786, 4002813
985, 4002814
530, 4002815
98, 4002816
829, 4002817
463, 4002818
931, 4002819
964, 4002820
420, 4002821
965, 4002822
512, 4002823
749, 4002824
825, 4002825
150, 4002826
645, 4002827
587, 4002828
383, 4002829
650, 4002830
757, 4002831
837, 4002832
900, 4002833
303, 4002834
727, 4002835
916, 4002836
783, 4002837
945, 4002838
924, 4002839
626, 4002840
802, 4002841
514, 4002842
759, 4002843
629, 4002844
248, 4002845
434, 4002846
99, 4002847
324, 4002848
783, 4002849
296, 4002850
384, 4002851
720, 4002852
415, 4002853
326, 4002854
486, 4002855
548, 4002856
105, 4002857
304, 4002858
136, 4002859
798, 4002860
977, 4002861
165, 4002862
922, 4002863
987, 4002864
892, 4002865
524, 4002866
235, 4002867
158, 4002868
586, 4002869
248, 4002870
715, 4002871
304, 4002872
316, 4002873
732, 4002874
93, 4002875
81, 4002876
190, 4002877
207, 4002878
534, 4002879
102, 4002880
582, 4002881
713, 4002882
516, 4002883
552, 4002884
363, 4002885
3, 4002886
719, 4002887
866, 4002888
158, 4002889
595, 4002890
146, 4002891
459, 4002892
115, 4002893
205, 4002894
986, 4002895
840, 4002896
73, 4002897
378, 4002898
165, 4002899
507, 4002900
533, 4002901
900, 4002902
133, 4002903
918, 4002904
899, 4002905
87, 4002906
314, 4002907
160, 4002908
485, 4002909
130, 4002910
419, 4002911
214, 4002912
192, 4002913
187, 4002914
405, 4002915
10, 4002916
918, 4002917
118, 4002918
49, 4002919
744, 4002920
711, 4002921
238, 4002922
130, 4002923
67, 4002924
774, 4002925
442, 4002926
972, 4002927
292, 4002928
697, 4002929
905, 4002930
966, 4002931
251, 4002932
417, 4002933
814, 4002934
296, 4002935
859, 4002936
109, 4002937
932, 4002938
733, 4002939
458, 4002940
515, 4002941
554, 4002942
186, 4002943
310, 4002944
343, 4002945
319, 4002946
341, 4002947
320, 4002948
857, 4002949
622, 4002950
894, 4002951
300, 4002952
707, 4002953
195, 4002954
488, 4002955
719, 4002956
672, 4002957
516, 4002958
728, 4002959
335, 4002960
70, 4002961
625, 4002962
221, 4002963
54, 4002964
652, 4002965
4, 4002966
270, 4002967
247, 4002968
636, 4002969
81, 4002970
814, 4002971
935, 4002972
314, 4002973
550, 4002974
147, 4002975
84, 4002976
938, 4002977
980, 4002978
530, 4002979
633, 4002980
237, 4002981
43, 4002982
708, 4002983
176, 4002984
748, 4002985
865, 4002986
652, 4002987
85, 4002988
995, 4002989
92, 4002990
470, 4002991
513, 4002992
823, 4002993
323, 4002994
537, 4002995
965, 4002996
616, 4002997
736, 4002998
390, 4002999
122, 4003000
431, 4003001
672, 4003002
198, 4003003
183, 4003004
384, 4003005
960, 4003006
254, 4003007
674, 4003008
977, 4003009
962, 4003010
854, 4003011
957, 4003012
57, 4003013
790, 4003014
125, 4003015
234, 4003016
793, 4003017
993, 4003018
863, 4003019
839, 4003020
542, 4003021
360, 4003022
647, 4003023
67, 4003024
236, 4003025
669, 4003026
276, 4003027
206, 4003028
228, 4003029
393, 4003030
688, 4003031
844, 4003032
926, 4003033
464, 4003034
507, 4003035
714, 4003036
607, 4003037
520, 4003038
252, 4003039
775, 4003040
796, 4003041
705, 4003042
400, 4003043
644, 4003044
77, 4003045
421, 4003046
480, 4003047
420, 4003048
778, 4003049
593, 4003050
191, 4003051
692, 4003052
329, 4003053
514, 4003054
193, 4003055
747, 4003056
989, 4003057
593, 4003058
485, 4003059
67, 4003060
632, 4003061
95, 4003062
396, 4003063
278, 4003064
106, 4003065
984, 4003066
607, 4003067
753, 4003068
350, 4003069
676, 4003070
499, 4003071
155, 4003072
571, 4003073
473, 4003074
744, 4003075
30, 4003076
417, 4003077
130, 4003078
421, 4003079
341, 4003080
440, 4003081
682, 4003082
438, 4003083
348, 4003084
452, 4003085
833, 4003086
222, 4003087
955, 4003088
715, 4003089
965, 4003090
932, 4003091
755, 4003092
436, 4003093
394, 4003094
546, 4003095
310, 4003096
433, 4003097
954, 4003098
472, 4003099
50, 4003100
85, 4003101
837, 4003102
173, 4003103
7, 4003104
271, 4003105
146, 4003106
606, 4003107
212, 4003108
957, 4003109
539, 4003110
429, 4003111
357, 4003112
513, 4003113
29, 4003114
923, 4003115
775, 4003116
623, 4003117
629, 4003118
861, 4003119
674, 4003120
516, 4003121
147, 4003122
330, 4003123
870, 4003124
328, 4003125
66, 4003126
2, 4003127
454, 4003128
212, 4003129
846, 4003130
680, 4003131
503, 4003132
789, 4003133
476, 4003134
393, 4003135
521, 4003136
38, 4003137
221, 4003138
11, 4003139
212, 4003140
593, 4003141
250, 4003142
430, 4003143
524, 4003144
975, 4003145
649, 4003146
725, 4003147
870, 4003148
562, 4003149
510, 4003150
414, 4003151
80, 4003152
402, 4003153
906, 4003154
837, 4003155
28, 4003156
788, 4003157
335, 4003158
236, 4003159
357, 4003160
580, 4003161
242, 4003162
398, 4003163
439, 4003164
620, 4003165
87, 4003166
359, 4003167
123, 4003168
434, 4003169
888, 4003170
117, 4003171
768, 4003172
278, 4003173
870, 4003174
553, 4003175
915, 4003176
472, 4003177
789, 4003178
486, 4003179
311, 4003180
894, 4003181
148, 4003182
969, 4003183
357, 4003184
923, 4003185
138, 4003186
703, 4003187
213, 4003188
881, 4003189
138, 4003190
481, 4003191
58, 4003192
40, 4003193
575, 4003194
402, 4003195
410, 4003196
203, 4003197
232, 4003198
951, 4003199
275, 4003200
770, 4003201
805, 4003202
502, 4003203
431, 4003204
394, 4003205
439, 4003206
271, 4003207
144, 4003208
686, 4003209
659, 4003210
173, 4003211
756, 4003212
825, 4003213
367, 4003214
142, 4003215
73, 4003216
489, 4003217
147, 4003218
758, 4003219
225, 4003220
141, 4003221
817, 4003222
976, 4003223
143, 4003224
743, 4003225
550, 4003226
300, 4003227
656, 4003228
835, 4003229
910, 4003230
985, 4003231
779, 4003232
638, 4003233
642, 4003234
108, 4003235
233, 4003236
271, 4003237
229, 4003238
215, 4003239
405, 4003240
584, 4003241
66, 4003242
59, 4003243
51, 4003244
221, 4003245
440, 4003246
509, 4003247
933, 4003248
531, 4003249
6, 4003250
772, 4003251
857, 4003252
786, 4003253
622, 4003254
704, 4003255
467, 4003256
683, 4003257
461, 4003258
909, 4003259
721, 4003260
179, 4003261
425, 4003262
805, 4003263
106, 4003264
478, 4003265
385, 4003266
873, 4003267
854, 4003268
731, 4003269
697, 4003270
608, 4003271
872, 4003272
718, 4003273
138, 4003274
422, 4003275
126, 4003276
289, 4003277
293, 4003278
766, 4003279
511, 4003280
177, 4003281
305, 4003282
120, 4003283
163, 4003284
239, 4003285
520, 4003286
763, 4003287
375, 4003288
612, 4003289
446, 4003290
707, 4003291
742, 4003292
411, 4003293
753, 4003294
788, 4003295
928, 4003296
114, 4003297
353, 4003298
36, 4003299
166, 4003300
840, 4003301
697, 4003302
204, 4003303
563, 4003304
136, 4003305
788, 4003306
535, 4003307
564, 4003308
701, 4003309
688, 4003310
450, 4003311
945, 4003312
411, 4003313
342, 4003314
18, 4003315
465, 4003316
404, 4003317
871, 4003318
272, 4003319
65, 4003320
1, 4003321
920, 4003322
800, 4003323
293, 4003324
627, 4003325
358, 4003326
332, 4003327
221, 4003328
258, 4003329
82, 4003330
237, 4003331
929, 4003332
221, 4003333
430, 4003334
835, 4003335
917, 4003336
374, 4003337
86, 4003338
599, 4003339
317, 4003340
289, 4003341
248, 4003342
511, 4003343
193, 4003344
218, 4003345
339, 4003346
18, 4003347
554, 4003348
369, 4003349
67, 4003350
919, 4003351
227, 4003352
432, 4003353
411, 4003354
434, 4003355
448, 4003356
627, 4003357
497, 4003358
783, 4003359
913, 4003360
518, 4003361
117, 4003362
764, 4003363
104, 4003364
627, 4003365
73, 4003366
875, 4003367
534, 4003368
377, 4003369
130, 4003370
253, 4003371
217, 4003372
749, 4003373
461, 4003374
215, 4003375
737, 4003376
748, 4003377
106, 4003378
360, 4003379
54, 4003380
614, 4003381
436, 4003382
641, 4003383
283, 4003384
853, 4003385
711, 4003386
435, 4003387
742, 4003388
91, 4003389
264, 4003390
484, 4003391
333, 4003392
783, 4003393
8, 4003394
770, 4003395
73, 4003396
488, 4003397
137, 4003398
733, 4003399
174, 4003400
71, 4003401
830, 4003402
633, 4003403
809, 4003404
809, 4003405
535, 4003406
889, 4003407
888, 4003408
515, 4003409
250, 4003410
53, 4003411
157, 4003412
19, 4003413
595, 4003414
804, 4003415
147, 4003416
669, 4003417
996, 4003418
658, 4003419
167, 4003420
131, 4003421
965, 4003422
43, 4003423
807, 4003424
995, 4003425
693, 4003426
693, 4003427
190, 4003428
253, 4003429
446, 4003430
970, 4003431
21, 4003432
466, 4003433
492, 4003434
115, 4003435
979, 4003436
54, 4003437
222, 4003438
701, 4003439
142, 4003440
973, 4003441
139, 4003442
639, 4003443
919, 4003444
65, 4003445
638, 4003446
250, 4003447
290, 4003448
826, 4003449
99, 4003450
543, 4003451
963, 4003452
52, 4003453
983, 4003454
804, 4003455
105, 4003456
12, 4003457
314, 4003458
599, 4003459
62, 4003460
115, 4003461
856, 4003462
720, 4003463
860, 4003464
641, 4003465
947, 4003466
139, 4003467
969, 4003468
26, 4003469
906, 4003470
179, 4003471
75, 4003472
836, 4003473
702, 4003474
104, 4003475
709, 4003476
366, 4003477
263, 4003478
1, 4003479
784, 4003480
843, 4003481
98, 4003482
394, 4003483
378, 4003484
372, 4003485
85, 4003486
583, 4003487
450, 4003488
665, 4003489
17, 4003490
830, 4003491
624, 4003492
224, 4003493
111, 4003494
345, 4003495
513, 4003496
780, 4003497
899, 4003498
777, 4003499
641, 4003500
823, 4003501
196, 4003502
163, 4003503
168, 4003504
183, 4003505
321, 4003506
630, 4003507
85, 4003508
884, 4003509
428, 4003510
243, 4003511
381, 4003512
360, 4003513
771, 4003514
107, 4003515
340, 4003516
469, 4003517
65, 4003518
316, 4003519
785, 4003520
34, 4003521
761, 4003522
524, 4003523
662, 4003524
894, 4003525
387, 4003526
564, 4003527
198, 4003528
579, 4003529
828, 4003530
437, 4003531
797, 4003532
668, 4003533
186, 4003534
206, 4003535
227, 4003536
654, 4003537
589, 4003538
459, 4003539
17, 4003540
690, 4003541
767, 4003542
743, 4003543
785, 4003544
945, 4003545
60, 4003546
275, 4003547
689, 4003548
14, 4003549
811, 4003550
28, 4003551
80, 4003552
687, 4003553
474, 4003554
328, 4003555
648, 4003556
932, 4003557
325, 4003558
97, 4003559
730, 4003560
158, 4003561
919, 4003562
960, 4003563
324, 4003564
88, 4003565
230, 4003566
290, 4003567
38, 4003568
681, 4003569
843, 4003570
934, 4003571
287, 4003572
464, 4003573
255, 4003574
5, 4003575
612, 4003576
166, 4003577
999, 4003578
440, 4003579
674, 4003580
495, 4003581
937, 4003582
893, 4003583
303, 4003584
424, 4003585
340, 4003586
498, 4003587
788, 4003588
130, 4003589
451, 4003590
512, 4003591
813, 4003592
293, 4003593
786, 4003594
736, 4003595
150, 4003596
261, 4003597
727, 4003598
113, 4003599
903, 4003600
153, 4003601
442, 4003602
887, 4003603
593, 4003604
270, 4003605
908, 4003606
981, 4003607
783, 4003608
631, 4003609
299, 4003610
324, 4003611
413, 4003612
480, 4003613
276, 4003614
89, 4003615
196, 4003616
102, 4003617
943, 4003618
794, 4003619
283, 4003620
608, 4003621
927, 4003622
41, 4003623
311, 4003624
857, 4003625
879, 4003626
39, 4003627
755, 4003628
659, 4003629
365, 4003630
626, 4003631
232, 4003632
580, 4003633
17, 4003634
399, 4003635
366, 4003636
228, 4003637
223, 4003638
231, 4003639
600, 4003640
125, 4003641
152, 4003642
958, 4003643
868, 4003644
665, 4003645
573, 4003646
735, 4003647
192, 4003648
143, 4003649
324, 4003650
49, 4003651
366, 4003652
590, 4003653
608, 4003654
364, 4003655
768, 4003656
168, 4003657
28, 4003658
908, 4003659
300, 4003660
32, 4003661
680, 4003662
140, 4003663
440, 4003664
180, 4003665
394, 4003666
116, 4003667
102, 4003668
283, 4003669
750, 4003670
868, 4003671
377, 4003672
878, 4003673
55, 4003674
86, 4003675
422, 4003676
259, 4003677
314, 4003678
751, 4003679
716, 4003680
541, 4003681
537, 4003682
237, 4003683
619, 4003684
221, 4003685
854, 4003686
138, 4003687
504, 4003688
556, 4003689
379, 4003690
63, 4003691
663, 4003692
717, 4003693
936, 4003694
49, 4003695
823, 4003696
511, 4003697
548, 4003698
488, 4003699
953, 4003700
177, 4003701
10, 4003702
650, 4003703
97, 4003704
532, 4003705
318, 4003706
364, 4003707
731, 4003708
556, 4003709
549, 4003710
793, 4003711
750, 4003712
543, 4003713
944, 4003714
464, 4003715
844, 4003716
459, 4003717
121, 4003718
657, 4003719
904, 4003720
347, 4003721
763, 4003722
560, 4003723
454, 4003724
259, 4003725
101, 4003726
104, 4003727
933, 4003728
791, 4003729
704, 4003730
609, 4003731
640, 4003732
512, 4003733
540, 4003734
235, 4003735
640, 4003736
878, 4003737
718, 4003738
696, 4003739
427, 4003740
854, 4003741
77, 4003742
581, 4003743
488, 4003744
125, 4003745
944, 4003746
672, 4003747
256, 4003748
778, 4003749
297, 4003750
915, 4003751
150, 4003752
551, 4003753
804, 4003754
231, 4003755
463, 4003756
129, 4003757
552, 4003758
906, 4003759
219, 4003760
763, 4003761
932, 4003762
521, 4003763
161, 4003764
838, 4003765
683, 4003766
910, 4003767
790, 4003768
404, 4003769
352, 4003770
962, 4003771
198, 4003772
439, 4003773
962, 4003774
603, 4003775
665, 4003776
911, 4003777
441, 4003778
455, 4003779
823, 4003780
233, 4003781
766, 4003782
383, 4003783
228, 4003784
207, 4003785
470, 4003786
517, 4003787
556, 4003788
878, 4003789
927, 4003790
117, 4003791
631, 4003792
667, 4003793
905, 4003794
343, 4003795
182, 4003796
541, 4003797
167, 4003798
667, 4003799
283, 4003800
750, 4003801
939, 4003802
67, 4003803
317, 4003804
737, 4003805
788, 4003806
324, 4003807
625, 4003808
413, 4003809
403, 4003810
420, 4003811
641, 4003812
984, 4003813
272, 4003814
301, 4003815
833, 4003816
412, 4003817
242, 4003818
24, 4003819
948, 4003820
684, 4003821
252, 4003822
723, 4003823
147, 4003824
695, 4003825
784, 4003826
691, 4003827
974, 4003828
516, 4003829
960, 4003830
650, 4003831
936, 4003832
484, 4003833
559, 4003834
249, 4003835
486, 4003836
123, 4003837
643, 4003838
358, 4003839
352, 4003840
479, 4003841
94, 4003842
343, 4003843
743, 4003844
431, 4003845
752, 4003846
525, 4003847
253, 4003848
436, 4003849
6, 4003850
594, 4003851
623, 4003852
26, 4003853
374, 4003854
418, 4003855
29, 4003856
544, 4003857
384, 4003858
933, 4003859
216, 4003860
115, 4003861
78, 4003862
923, 4003863
219, 4003864
383, 4003865
188, 4003866
958, 4003867
603, 4003868
597, 4003869
664, 4003870
563, 4003871
838, 4003872
357, 4003873
866, 4003874
712, 4003875
407, 4003876
430, 4003877
781, 4003878
47, 4003879
456, 4003880
928, 4003881
292, 4003882
977, 4003883
381, 4003884
57, 4003885
965, 4003886
44, 4003887
695, 4003888
932, 4003889
297, 4003890
541, 4003891
878, 4003892
354, 4003893
321, 4003894
278, 4003895
806, 4003896
85, 4003897
498, 4003898
281, 4003899
75, 4003900
16, 4003901
25, 4003902
34, 4003903
700, 4003904
320, 4003905
567, 4003906
888, 4003907
978, 4003908
789, 4003909
878, 4003910
371, 4003911
738, 4003912
505, 4003913
930, 4003914
727, 4003915
431, 4003916
751, 4003917
969, 4003918
152, 4003919
800, 4003920
333, 4003921
883, 4003922
412, 4003923
783, 4003924
682, 4003925
145, 4003926
475, 4003927
431, 4003928
792, 4003929
273, 4003930
401, 4003931
53, 4003932
642, 4003933
424, 4003934
963, 4003935
128, 4003936
902, 4003937
510, 4003938
285, 4003939
465, 4003940
308, 4003941
77, 4003942
154, 4003943
339, 4003944
421, 4003945
930, 4003946
755, 4003947
75, 4003948
453, 4003949
834, 4003950
558, 4003951
408, 4003952
17, 4003953
806, 4003954
96, 4003955
668, 4003956
121, 4003957
631, 4003958
691, 4003959
912, 4003960
446, 4003961
441, 4003962
800, 4003963
691, 4003964
964, 4003965
948, 4003966
166, 4003967
812, 4003968
1, 4003969
646, 4003970
305, 4003971
475, 4003972
564, 4003973
105, 4003974
754, 4003975
619, 4003976
454, 4003977
907, 4003978
45, 4003979
259, 4003980
556, 4003981
896, 4003982
790, 4003983
183, 4003984
962, 4003985
18, 4003986
651, 4003987
219, 4003988
401, 4003989
825, 4003990
524, 4003991
776, 4003992
665, 4003993
907, 4003994
534, 4003995
437, 4003996
255, 4003997
564, 4003998
875, 4003999
879, 4004000
